
Gurobi 7.5.1 (linux64) logging started Fri Oct 20 18:10:55 2017

Academic license - for non-commercial use only
Set parameter LogToConsole to value 0

Gurobi Optimizer version 7.5.1 build v7.5.1rc0 (linux64)
Copyright (c) 2017, Gurobi Optimization, Inc.

Read LP format model from file problem.lp
Reading time = 0.00 seconds
: 94 rows, 46 columns, 230 nonzeros
Optimize a model with 94 rows, 46 columns and 230 nonzeros
Coefficient statistics:
  Matrix range     [1e+00, 2e+03]
  Objective range  [1e+00, 1e+00]
  Bounds range     [0e+00, 0e+00]
  RHS range        [1e+00, 2e+03]
Presolve removed 69 rows and 35 columns
Presolve time: 0.00s
Presolved: 25 rows, 11 columns, 67 nonzeros

Iteration    Objective       Primal Inf.    Dual Inf.      Time
       0    0.0000000e+00   4.133352e+03   0.000000e+00      0s
      16    2.9569173e-02   0.000000e+00   0.000000e+00      0s

Solved in 16 iterations and 0.00 seconds
Optimal objective  2.956917313e-02

Wrote result file 'max.sol'

